
Gurobi 6.0.2 (mac64) logging started Mon Aug 31 11:12:04 2015

Optimize a model with 500 rows, 500 columns and 250000 nonzeros
Coefficient statistics:
  Matrix range    [5e+00, 5e+01]
  Objective range [1e+01, 2e+01]
  Bounds range    [0e+00, 0e+00]
  RHS range       [1e+01, 2e+01]

Concurrent LP optimizer: dual simplex and barrier
Showing barrier log only...

Presolve time: 0.08s
Presolved: 500 rows, 500 columns, 250000 nonzeros

Ordering time: 0.00s

Barrier statistics:
 AA' NZ     : 1.248e+05
 Factor NZ  : 1.252e+05 (roughly 1 MByte of memory)
 Factor Ops : 4.179e+07 (less than 1 second per iteration)
 Threads    : 1

Barrier performed 0 iterations in 0.14 seconds
Barrier solve interrupted - model solved by another algorithm


Solved with dual simplex
Solved in 122 iterations and 0.16 seconds
Optimal objective  7.338633464e+00

Gurobi 6.0.2 (mac64) logging started Mon Aug 31 11:12:40 2015

Optimize a model with 20 rows, 20 columns and 400 nonzeros
Coefficient statistics:
  Matrix range    [5e+00, 5e+01]
  Objective range [1e+01, 2e+01]
  Bounds range    [0e+00, 0e+00]
  RHS range       [1e+01, 2e+01]
Presolve time: 0.00s
Presolved: 20 rows, 20 columns, 400 nonzeros

Iteration    Objective       Primal Inf.    Dual Inf.      Time
       0    0.0000000e+00   4.687500e+00   0.000000e+00      0s
      11    7.4815903e+00   0.000000e+00   0.000000e+00      0s

Solved in 11 iterations and 0.01 seconds
Optimal objective  7.481590294e+00
